Route #1: 44 10 5 8 27 29 37
Route #2: 41 36 6 25
Route #3: 1 30 18 20 42 40
Route #4: 3 31 24 28 11 21 39 14 45 4
Route #5: 23 12 50 17 22 26 38 48 2
Route #6: 13 46 49 15 19 34 32 16 9
Route #7: 47 51 7 43 33 35
Cost 747
Time 0.190082
Tempo = 0.20261879999452503